c b=3,c=149
p cnf 14 45
1 3 -6 0
1 3 -8 0
3 -10 0
3 -13 0
1 -3 6 0
1 -3 8 0
1 -3 10 0
1 -3 13 0
2 -5 0
1 2 -7 0
1 2 -9 0
2 -12 0
-2 5 0
1 -2 7 0
1 -2 9 0
1 -2 12 0
1 -4 0
1 -11 0
1 -14 0
-1 3 6 0
2 3 -7 0
-1 3 8 0
2 3 -9 0
-1 -3 -6 0
-1 2 -3 7 0
-1 2 -3 -8 0
-1 2 -3 9 0
2 -3 10 0
2 -3 13 0
-1 2 11 0
2 -14 0
-2 3 7 0
-2 3 9 0
-1 3 11 0
-2 3 12 0
3 -14 0
-1 -2 -3 -7 0
-1 -2 -3 -9 0
-2 -3 -11 0
-1 -3 -12 0
-1 -2 -3 14 0
-1 -2 8 0
-1 -2 -10 0
-1 -2 -13 0
-1 4 0
